# chk.win generated by checkerboard_seedgen.py
# cell_origin_shift = -1.5707963268 0.0000000000 0.0
num_wann = 2
num_bands = 2
mp_grid = 8 8 1
guiding_centres = true
write_hr = true
write_xyz = true
begin unit_cell_cart
  ang
      3.1415926536     3.1415926536     0.0000000000
      3.1415926536    -3.1415926536     0.0000000000
      0.0000000000     0.0000000000    30.0000000000
end unit_cell_cart

begin projections
  random
end projections

wannier_plot = .true.
wannier_plot_list = 1-2
wannier_plot_format = xcrysden
wannier_plot_supercell = 1 1 1

wvfn_formatted = .true.

begin kpoints
      0.0000000000     0.0000000000     0.0000000000
      0.0000000000     0.1250000000     0.0000000000
      0.0000000000     0.2500000000     0.0000000000
      0.0000000000     0.3750000000     0.0000000000
      0.0000000000     0.5000000000     0.0000000000
      0.0000000000     0.6250000000     0.0000000000
      0.0000000000     0.7500000000     0.0000000000
      0.0000000000     0.8750000000     0.0000000000
      0.1250000000     0.0000000000     0.0000000000
      0.1250000000     0.1250000000     0.0000000000
      0.1250000000     0.2500000000     0.0000000000
      0.1250000000     0.3750000000     0.0000000000
      0.1250000000     0.5000000000     0.0000000000
      0.1250000000     0.6250000000     0.0000000000
      0.1250000000     0.7500000000     0.0000000000
      0.1250000000     0.8750000000     0.0000000000
      0.2500000000     0.0000000000     0.0000000000
      0.2500000000     0.1250000000     0.0000000000
      0.2500000000     0.2500000000     0.0000000000
      0.2500000000     0.3750000000     0.0000000000
      0.2500000000     0.5000000000     0.0000000000
      0.2500000000     0.6250000000     0.0000000000
      0.2500000000     0.7500000000     0.0000000000
      0.2500000000     0.8750000000     0.0000000000
      0.3750000000     0.0000000000     0.0000000000
      0.3750000000     0.1250000000     0.0000000000
      0.3750000000     0.2500000000     0.0000000000
      0.3750000000     0.3750000000     0.0000000000
      0.3750000000     0.5000000000     0.0000000000
      0.3750000000     0.6250000000     0.0000000000
      0.3750000000     0.7500000000     0.0000000000
      0.3750000000     0.8750000000     0.0000000000
      0.5000000000     0.0000000000     0.0000000000
      0.5000000000     0.1250000000     0.0000000000
      0.5000000000     0.2500000000     0.0000000000
      0.5000000000     0.3750000000     0.0000000000
      0.5000000000     0.5000000000     0.0000000000
      0.5000000000     0.6250000000     0.0000000000
      0.5000000000     0.7500000000     0.0000000000
      0.5000000000     0.8750000000     0.0000000000
      0.6250000000     0.0000000000     0.0000000000
      0.6250000000     0.1250000000     0.0000000000
      0.6250000000     0.2500000000     0.0000000000
      0.6250000000     0.3750000000     0.0000000000
      0.6250000000     0.5000000000     0.0000000000
      0.6250000000     0.6250000000     0.0000000000
      0.6250000000     0.7500000000     0.0000000000
      0.6250000000     0.8750000000     0.0000000000
      0.7500000000     0.0000000000     0.0000000000
      0.7500000000     0.1250000000     0.0000000000
      0.7500000000     0.2500000000     0.0000000000
      0.7500000000     0.3750000000     0.0000000000
      0.7500000000     0.5000000000     0.0000000000
      0.7500000000     0.6250000000     0.0000000000
      0.7500000000     0.7500000000     0.0000000000
      0.7500000000     0.8750000000     0.0000000000
      0.8750000000     0.0000000000     0.0000000000
      0.8750000000     0.1250000000     0.0000000000
      0.8750000000     0.2500000000     0.0000000000
      0.8750000000     0.3750000000     0.0000000000
      0.8750000000     0.5000000000     0.0000000000
      0.8750000000     0.6250000000     0.0000000000
      0.8750000000     0.7500000000     0.0000000000
      0.8750000000     0.8750000000     0.0000000000
end kpoints
